n_machines = 2;
n_resources = 3;
n_jobs = 30;
horizon = 1430;
LB = 715;
n_jobs_per_resource = [10, 10, 10];
duration = [59, 75, 30, 59, 19, 97, 70, 73, 64, 70, 56, 48, 38, 4, 30, 15, 26, 61, 42, 61, 30, 21, 91, 90, 27, 7, 32, 94, 16, 25]